0
Node Left Objective IInf Best_Integer Best_Bound ItCnt Gap
0+ 0 nan nan 136.4723 0.0000 nan 100.00%
0+ 0 nan nan 99.3310 0.0000 nan 100.00%
0 0 24.4170 14 99.3310 24.4170 133 75.42%
0+ 0 nan nan 91.3252 24.4170 nan 73.26%
0 0 33.2228 15 91.3252 Cuts:19 176 63.62%
0+ 0 nan nan 67.2946 33.2228 nan 50.63%
0 0 33.6082 15 67.2946 Cuts:6 188 50.06%
0 0 33.6659 16 67.2946 Disjcuts:1 190 49.97%
0 0 34.8509 16 67.2946 Cuts:7 204 48.21%
0 0 35.0900 15 67.2946 Cuts:12 214 47.86%
0 0 35.1200 16 67.2946 MIRcuts:3 220 47.81%
0 0 35.1263 16 67.2946 Cuts:3 223 47.80%
0 0 35.1342 15 67.2946 MIRcuts:1 227 47.79%
0 2 35.1342 15 67.2946 35.6704 227 46.99%
CPXPARAM_MIP_Cuts_Gomory-Disjunctive-MIRCut:Gomory 2
CPXPARAM_MIP_Cuts_Gomory-Disjunctive-MIRCut:Disjunctive 4
CPXPARAM_MIP_Cuts_Gomory-Disjunctive-MIRCut:MIRCut 5
1
Node Left Objective IInf Best_Integer Best_Bound ItCnt Gap
0+ 0 nan nan 136.4723 0.0000 nan 100.00%
0+ 0 nan nan 99.3310 0.0000 nan 100.00%
0+ 0 nan nan 92.6197 0.0000 nan 100.00%
0 0 0.6675 26 92.6197 0.6675 123 99.28%
0 0 3.7889 24 92.6197 Cuts:23 153 95.91%
0+ 0 nan nan 21.0972 3.7889 nan 82.04%
0 0 5.1868 23 21.0972 Cuts:18 186 75.41%
0 0 5.4620 22 21.0972 Disjcuts:4 201 74.11%
0+ 0 nan nan 18.5290 5.4620 nan 70.52%
0 0 5.5109 22 18.5290 Cuts:2 208 70.26%
0 0 5.8726 20 18.5290 Disjcuts:4 238 68.31%
0+ 0 nan nan 11.7670 5.8726 nan 50.09%
0 0 5.9012 21 11.7670 Cuts:5 246 49.85%
0 0 5.9024 20 11.7670 MIRcuts:1 248 49.84%
0 2 7.0306 8 11.7670 7.0713 248 39.91%
CPXPARAM_MIP_Cuts_Gomory-Disjunctive-MIRCut:Gomory 2
CPXPARAM_MIP_Cuts_Gomory-Disjunctive-MIRCut:Disjunctive 4
CPXPARAM_MIP_Cuts_Gomory-Disjunctive-MIRCut:MIRCut 13
2
Node Left Objective IInf Best_Integer Best_Bound ItCnt Gap
0+ 0 nan nan 136.4723 0.0000 nan 100.00%
0+ 0 nan nan 72.0230 0.0000 nan 100.00%
0 0 22.6334 9 72.0230 22.6334 129 68.57%
0 0 28.6727 9 72.0230 Cuts:12 155 60.19%
0+ 0 nan nan 55.7527 28.6727 nan 48.57%
0 0 28.6727 9 55.7527 Cuts:3 158 48.57%
0 0 30.2863 10 55.7527 MIRcuts:2 172 45.68%
0 0 31.0162 11 55.7527 MIRcuts:2 177 44.37%
0 0 31.1996 13 55.7527 MIRcuts:5 184 44.04%
0 0 31.2592 12 55.7527 MIRcuts:4 187 43.93%
0+ 0 nan nan 52.4910 31.2592 nan 40.45%
0 0 31.3037 11 52.4910 MIRcuts:3 193 40.36%
0 0 31.4094 9 52.4910 MIRcuts:4 198 40.16%
0+ 0 nan nan 47.5261 31.4094 nan 33.91%
0 2 31.4094 9 47.5261 31.6202 198 33.47%
CPXPARAM_MIP_Cuts_Gomory-Disjunctive-MIRCut:Gomory 4
CPXPARAM_MIP_Cuts_Gomory-Disjunctive-MIRCut:Disjunctive 0
CPXPARAM_MIP_Cuts_Gomory-Disjunctive-MIRCut:MIRCut 3
3
Node Left Objective IInf Best_Integer Best_Bound ItCnt Gap
0+ 0 nan nan 136.4723 0.0000 nan 100.00%
0+ 0 nan nan 78.8830 0.0000 nan 100.00%
0 0 0.3026 20 78.8830 0.3026 110 99.62%
0+ 0 nan nan 59.7230 0.3026 nan 99.49%
0 0 2.6956 16 59.7230 Cuts:19 140 95.49%
0+ 0 nan nan 31.3407 2.6956 nan 91.40%
0 0 3.5707 17 31.3407 Disjcuts:7 159 88.61%
0+ 0 nan nan 23.1833 3.5707 nan 84.60%
0 0 3.6060 15 23.1833 Disjcuts:2 166 84.45%
0 0 3.6101 15 23.1833 Disjcuts:1 168 84.43%
0 0 5.5174 14 23.1833 Cuts:13 197 76.20%
0+ 0 nan nan 14.3912 5.5174 nan 61.66%
0+ 0 nan nan 6.8876 5.5174 nan 19.89%
0 1 6.6698 5 6.8876 6.6698 197 3.16%
CPXPARAM_MIP_Cuts_Gomory-Disjunctive-MIRCut:Gomory 1
CPXPARAM_MIP_Cuts_Gomory-Disjunctive-MIRCut:Disjunctive 5
CPXPARAM_MIP_Cuts_Gomory-Disjunctive-MIRCut:MIRCut 5
4
Node Left Objective IInf Best_Integer Best_Bound ItCnt Gap
0+ 0 nan nan 115.1924 0.0000 nan 100.00%
0+ 0 nan nan 108.1598 0.0000 nan 100.00%
0+ 0 nan nan 102.3525 0.0000 nan 100.00%
0 0 23.6849 14 102.3525 23.6849 149 76.86%
0+ 0 nan nan 86.4233 23.6849 nan 72.59%
0 0 29.2087 15 86.4233 Cuts:20 189 66.20%
0+ 0 nan nan 80.6515 29.2087 nan 63.78%
0 0 29.2659 16 80.6515 Cuts:9 198 63.71%
0+ 0 nan nan 61.6267 29.2659 nan 52.51%
0 0 29.2853 16 61.6267 MIRcuts:2 205 52.48%
0 0 29.3093 16 61.6267 Cuts:3 211 52.44%
0 0 29.3341 16 61.6267 MIRcuts:1 216 52.40%
0 0 29.3462 16 61.6267 MIRcuts:3 221 52.38%
0 0 29.3487 16 61.6267 MIRcuts:6 227 52.38%
0 0 29.3491 16 61.6267 MIRcuts:2 230 52.38%
0 0 29.3492 16 61.6267 MIRcuts:2 232 52.38%
0 2 29.3492 16 61.6267 29.4451 232 52.22%
CPXPARAM_MIP_Cuts_Gomory-Disjunctive-MIRCut:Gomory 6
CPXPARAM_MIP_Cuts_Gomory-Disjunctive-MIRCut:Disjunctive 0
CPXPARAM_MIP_Cuts_Gomory-Disjunctive-MIRCut:MIRCut 6
5
Node Left Objective IInf Best_Integer Best_Bound ItCnt Gap
0+ 0 nan nan 115.1924 0.0000 nan 100.00%
0+ 0 nan nan 108.1598 0.0000 nan 100.00%
0+ 0 nan nan 83.4389 0.0000 nan 100.00%
0 0 0.5012 24 83.4389 0.5012 125 99.40%
0+ 0 nan nan 52.2996 0.5012 nan 99.04%
0 0 5.6101 23 52.2996 Cuts:25 159 89.27%
0+ 0 nan nan 28.6257 5.6101 nan 80.40%
0 0 5.6101 22 28.6257 Cuts:2 161 80.40%
0+ 0 nan nan 14.4470 5.6101 nan 61.17%
0 2 5.6101 21 14.4470 6.3017 161 56.38%
CPXPARAM_MIP_Cuts_Gomory-Disjunctive-MIRCut:Gomory 0
CPXPARAM_MIP_Cuts_Gomory-Disjunctive-MIRCut:Disjunctive 2
CPXPARAM_MIP_Cuts_Gomory-Disjunctive-MIRCut:MIRCut 7
6
Node Left Objective IInf Best_Integer Best_Bound ItCnt Gap
0+ 0 nan nan 115.1924 0.0000 nan 100.00%
0+ 0 nan nan 82.6615 0.0000 nan 100.00%
0 0 24.8139 9 82.6615 24.8139 129 69.98%
0+ 0 nan nan 71.8353 24.8139 nan 65.46%
0 0 27.8168 9 71.8353 Disjcuts:3 138 61.28%
0+ 0 nan nan 54.6460 27.8168 nan 49.10%
0 0 32.0175 13 54.6460 Cuts:9 174 41.41%
0 0 34.2362 12 54.6460 Cuts:9 200 37.35%
0+ 0 nan nan 53.5896 34.2362 nan 36.11%
0 0 34.3065 14 53.5896 MIRcuts:6 220 35.98%
0 0 34.3422 14 53.5896 MIRcuts:6 234 35.92%
0+ 0 nan nan 52.9485 34.3422 nan 35.14%
0 0 34.3964 13 52.9485 Cuts:5 243 35.04%
0 0 34.3981 13 52.9485 MIRcuts:3 248 35.03%
0 0 34.4305 14 52.9485 MIRcuts:2 254 34.97%
0 0 34.4574 15 52.9485 MIRcuts:2 257 34.92%
0 0 34.4850 15 52.9485 MIRcuts:2 260 34.87%
0 0 34.5934 14 52.9485 MIRcuts:1 274 34.67%
0 0 34.6416 13 52.9485 MIRcuts:4 284 34.57%
0 0 34.6893 14 52.9485 MIRcuts:8 293 34.48%
0 0 34.7948 14 52.9485 MIRcuts:7 303 34.29%
0 0 34.8263 14 52.9485 MIRcuts:3 308 34.23%
0 0 34.9440 15 52.9485 MIRcuts:4 317 34.00%
0 0 34.9631 15 52.9485 MIRcuts:2 321 33.97%
0 0 35.0439 14 52.9485 MIRcuts:1 327 33.82%
0 0 35.0804 15 52.9485 MIRcuts:7 333 33.75%
0 0 35.1151 13 52.9485 MIRcuts:2 340 33.68%
0 0 35.2931 13 52.9485 MIRcuts:5 350 33.34%
0 0 35.4253 13 52.9485 MIRcuts:10 364 33.09%
0 0 35.5897 14 52.9485 Cuts:3 373 32.78%
0 0 35.5897 15 52.9485 MIRcuts:2 375 32.78%
0 2 35.5897 15 52.9485 36.0450 375 31.92%
CPXPARAM_MIP_Cuts_Gomory-Disjunctive-MIRCut:Gomory 10
CPXPARAM_MIP_Cuts_Gomory-Disjunctive-MIRCut:Disjunctive 0
CPXPARAM_MIP_Cuts_Gomory-Disjunctive-MIRCut:MIRCut 4
7
Node Left Objective IInf Best_Integer Best_Bound ItCnt Gap
0+ 0 nan nan 115.1924 0.0000 nan 100.00%
0+ 0 nan nan 86.0575 0.0000 nan 100.00%
0 0 0.0036 22 86.0575 0.0036 119 100.00%
0+ 0 nan nan 43.5961 0.0036 nan 99.99%
0 0 3.8418 17 43.5961 Cuts:30 179 91.19%
0+ 0 nan nan 10.3017 3.8418 nan 62.71%
0 0 3.9019 16 10.3017 Disjcuts:1 182 62.12%
0 2 6.2366 7 10.3017 6.3487 182 38.37%
CPXPARAM_MIP_Cuts_Gomory-Disjunctive-MIRCut:Gomory 0
CPXPARAM_MIP_Cuts_Gomory-Disjunctive-MIRCut:Disjunctive 1
CPXPARAM_MIP_Cuts_Gomory-Disjunctive-MIRCut:MIRCut 10
8
Node Left Objective IInf Best_Integer Best_Bound ItCnt Gap
0+ 0 nan nan 131.6037 0.0000 nan 100.00%
0+ 0 nan nan 112.2485 0.0000 nan 100.00%
0 0 45.7863 15 112.2485 45.7863 126 59.21%
0+ 0 nan nan 98.1321 45.7863 nan 53.34%
0 0 52.9862 17 98.1321 Cuts:19 147 46.01%
0 0 53.1504 14 98.1321 Cuts:6 151 45.84%
0+ 0 nan nan 87.3559 53.1504 nan 39.16%
0 0 55.1168 16 87.3559 Cuts:9 181 36.91%
0 0 55.4152 15 87.3559 Cuts:5 200 36.56%
0 0 55.4705 16 87.3559 Cuts:3 206 36.50%
0+ 0 nan nan 84.9214 55.4705 nan 34.68%
0 0 55.6493 15 84.9214 Cuts:4 216 34.47%
0 0 55.9981 14 84.9214 Cuts:4 227 34.06%
0 0 56.0015 14 84.9214 MIRcuts:1 229 34.05%
0+ 0 nan nan 84.3795 56.0015 nan 33.63%
0+ 0 nan nan 77.8614 56.0015 nan 28.08%
0 2 56.0015 14 77.8614 56.1591 229 27.87%
CPXPARAM_MIP_Cuts_Gomory-Disjunctive-MIRCut:Gomory 1
CPXPARAM_MIP_Cuts_Gomory-Disjunctive-MIRCut:Disjunctive 4
CPXPARAM_MIP_Cuts_Gomory-Disjunctive-MIRCut:MIRCut 5
9
Node Left Objective IInf Best_Integer Best_Bound ItCnt Gap
0+ 0 nan nan 131.6037 0.0000 nan 100.00%
0+ 0 nan nan 111.7972 0.0000 nan 100.00%
0+ 0 nan nan 83.4511 0.0000 nan 100.00%
0 0 0.5228 27 83.4511 0.5228 117 99.37%
0+ 0 nan nan 66.1456 0.5228 nan 99.21%
0 0 4.8939 22 66.1456 Cuts:27 166 92.60%
0+ 0 nan nan 38.2314 4.8939 nan 87.20%
0 0 5.9192 23 38.2314 Cuts:15 183 84.52%
0 0 6.3863 22 38.2314 Cuts:14 208 83.30%
0+ 0 nan nan 37.0787 6.3863 nan 82.78%
0 0 6.4907 22 37.0787 Cuts:5 218 82.49%
0+ 0 nan nan 32.2793 6.4907 nan 79.89%
0 0 6.5298 24 32.2793 Cuts:5 226 79.77%
0 0 6.5308 24 32.2793 MIRcuts:1 227 79.77%
0 0 6.5323 23 32.2793 MIRcuts:1 229 79.76%
0 0 6.5331 23 32.2793 MIRcuts:1 230 79.76%
0+ 0 nan nan 26.9201 6.5331 nan 75.73%
0 2 6.5331 23 26.9201 6.5524 230 75.66%
CPXPARAM_MIP_Cuts_Gomory-Disjunctive-MIRCut:Gomory 6
CPXPARAM_MIP_Cuts_Gomory-Disjunctive-MIRCut:Disjunctive 3
CPXPARAM_MIP_Cuts_Gomory-Disjunctive-MIRCut:MIRCut 8
10
Node Left Objective IInf Best_Integer Best_Bound ItCnt Gap
0+ 0 nan nan 131.6037 0.0000 nan 100.00%
0+ 0 nan nan 103.2308 0.0000 nan 100.00%
0 0 38.3907 9 103.2308 38.3907 132 62.81%
0+ 0 nan nan 95.7077 38.3907 nan 59.89%
0 0 47.7614 7 95.7077 Cuts:7 153 50.10%
0+ 0 nan nan 84.3558 47.7614 nan 43.38%
0 0 48.4343 7 84.3558 Disjcuts:3 166 42.58%
0+ 0 nan nan 80.5636 48.4343 nan 39.88%
0 0 48.5105 9 80.5636 Disjcuts:1 172 39.79%
0 0 49.8956 11 80.5636 Cuts:2 189 38.07%
0 0 50.1408 12 80.5636 Cuts:3 197 37.76%
0 0 50.2781 13 80.5636 MIRcuts:3 201 37.59%
0 0 50.4638 13 80.5636 MIRcuts:3 206 37.36%
0 0 50.4783 13 80.5636 Cuts:5 214 37.34%
0 0 50.5259 14 80.5636 Cuts:8 220 37.28%
0 0 50.5274 14 80.5636 MIRcuts:1 221 37.28%
0 0 50.5382 14 80.5636 MIRcuts:1 222 37.27%
0 0 50.6165 14 80.5636 MIRcuts:2 228 37.17%
0 0 50.6236 14 80.5636 MIRcuts:1 231 37.16%
0 0 50.6261 14 80.5636 Cuts:2 233 37.16%
0+ 0 nan nan 77.9204 50.6261 nan 35.03%
0+ 0 nan nan 75.9219 50.6261 nan 33.32%
0+ 0 nan nan 69.1190 50.6261 nan 26.76%
0 2 50.7589 13 69.1190 50.9339 233 26.31%
CPXPARAM_MIP_Cuts_Gomory-Disjunctive-MIRCut:Gomory 8
CPXPARAM_MIP_Cuts_Gomory-Disjunctive-MIRCut:Disjunctive 2
CPXPARAM_MIP_Cuts_Gomory-Disjunctive-MIRCut:MIRCut 3
11
Node Left Objective IInf Best_Integer Best_Bound ItCnt Gap
0+ 0 nan nan 131.6037 0.0000 nan 100.00%
0+ 0 nan nan 119.4045 0.0000 nan 100.00%
0 0 0.0384 21 119.4045 0.0384 109 99.97%
0+ 0 nan nan 53.3751 0.0384 nan 99.93%
0 0 4.4273 17 53.3751 Cuts:28 164 91.71%
0+ 0 nan nan 37.0789 4.4273 nan 88.06%
0 0 4.4312 17 37.0789 Disjcuts:2 175 88.05%
0 0 4.9676 13 37.0789 Cuts:7 197 86.60%
0+ 0 nan nan 34.4775 4.9676 nan 85.59%
0 0 5.1373 15 34.4775 Fract:2 209 85.10%
0+ 0 nan nan 22.9033 5.1373 nan 77.57%
0 0 5.5514 15 22.9033 Cuts:6 230 75.76%
0 2 5.5514 15 22.9033 5.7017 230 75.11%
CPXPARAM_MIP_Cuts_Gomory-Disjunctive-MIRCut:Gomory 0
CPXPARAM_MIP_Cuts_Gomory-Disjunctive-MIRCut:Disjunctive 3
CPXPARAM_MIP_Cuts_Gomory-Disjunctive-MIRCut:MIRCut 8
12
Node Left Objective IInf Best_Integer Best_Bound ItCnt Gap
0+ 0 nan nan 110.3567 0.0000 nan 100.00%
0+ 0 nan nan 96.8755 0.0000 nan 100.00%
0 0 29.3411 15 96.8755 29.3411 140 69.71%
0+ 0 nan nan 82.7988 29.3411 nan 64.56%
0 0 38.5270 15 82.7988 Cuts:41 181 53.47%
0+ 0 nan nan 81.6611 38.5270 nan 52.82%
0 0 39.2252 15 81.6611 Cuts:8 193 51.97%
0 0 40.2089 14 81.6611 Cuts:13 220 50.76%
0+ 0 nan nan 57.9047 40.2089 nan 30.56%
0 0 40.8896 15 57.9047 Cuts:12 237 29.38%
0 0 41.0816 14 57.9047 Cuts:4 244 29.05%
0 0 41.1744 13 57.9047 Cuts:6 253 28.89%
0 0 41.3119 15 57.9047 Cuts:4 264 28.66%
0 0 41.3220 15 57.9047 Cuts:3 268 28.64%
0 0 41.3236 15 57.9047 MIRcuts:2 270 28.64%
0 0 41.4041 14 57.9047 Cuts:3 283 28.50%
0 0 41.4412 13 57.9047 Disjcuts:1 287 28.43%
0 0 41.4516 13 57.9047 MIRcuts:2 289 28.41%
0 0 41.4519 14 57.9047 MIRcuts:1 290 28.41%
0 2 41.4519 14 57.9047 41.4750 290 28.37%
CPXPARAM_MIP_Cuts_Gomory-Disjunctive-MIRCut:Gomory 6
CPXPARAM_MIP_Cuts_Gomory-Disjunctive-MIRCut:Disjunctive 4
CPXPARAM_MIP_Cuts_Gomory-Disjunctive-MIRCut:MIRCut 5
13
Node Left Objective IInf Best_Integer Best_Bound ItCnt Gap
0+ 0 nan nan 110.3567 0.0000 nan 100.00%
0+ 0 nan nan 96.8755 0.0000 nan 100.00%
0+ 0 nan nan 82.0823 0.0000 nan 100.00%
0 0 0.5309 26 82.0823 0.5309 120 99.35%
0+ 0 nan nan 75.6071 0.5309 nan 99.30%
0 0 4.4948 25 75.6071 Cuts:24 163 94.06%
0+ 0 nan nan 48.4510 4.4948 nan 90.72%
0 0 5.2557 23 48.4510 Cuts:9 181 89.15%
0+ 0 nan nan 41.2448 5.2557 nan 87.26%
0 0 5.4780 24 41.2448 Disjcuts:2 190 86.72%
0+ 0 nan nan 35.6227 5.4780 nan 84.62%
0 0 5.5097 25 35.6227 Cuts:2 194 84.53%
0+ 0 nan nan 30.7529 5.5097 nan 82.08%
0 0 5.5344 23 30.7529 Disjcuts:2 196 82.00%
0+ 0 nan nan 25.7876 5.5344 nan 78.54%
0 0 5.5436 25 25.7876 MIRcuts:1 198 78.50%
0+ 0 nan nan 24.0458 5.5436 nan 76.95%
0+ 0 nan nan 17.1872 5.5436 nan 67.75%
0 2 5.5436 25 17.1872 5.5442 198 67.74%
CPXPARAM_MIP_Cuts_Gomory-Disjunctive-MIRCut:Gomory 1
CPXPARAM_MIP_Cuts_Gomory-Disjunctive-MIRCut:Disjunctive 1
CPXPARAM_MIP_Cuts_Gomory-Disjunctive-MIRCut:MIRCut 11
14
Node Left Objective IInf Best_Integer Best_Bound ItCnt Gap
0+ 0 nan nan 110.3567 0.0000 nan 100.00%
0+ 0 nan nan 82.1268 0.0000 nan 100.00%
0 0 26.8968 8 82.1268 26.8968 122 67.25%
0+ 0 nan nan 70.4047 26.8968 nan 61.80%
0 0 31.0075 8 70.4047 Cuts:12 142 55.96%
0+ 0 nan nan 65.5472 31.0075 nan 52.69%
0 0 31.0607 9 65.5472 Cuts:5 152 52.61%
0+ 0 nan nan 65.3976 31.0607 nan 52.50%
0 0 34.2186 10 65.3976 Cuts:12 196 47.68%
0+ 0 nan nan 57.7927 34.2186 nan 40.79%
0 0 37.7606 12 57.7927 Cuts:14 233 34.66%
0 0 39.5303 11 57.7927 Cuts:23 275 31.60%
0 0 39.5368 12 57.7927 MIRcuts:2 280 31.59%
0 0 39.5369 12 57.7927 MIRcuts:1 281 31.59%
0+ 0 nan nan 57.7892 39.5369 nan 31.58%
0 2 39.5369 12 57.7892 39.5731 281 31.52%
CPXPARAM_MIP_Cuts_Gomory-Disjunctive-MIRCut:Gomory 4
CPXPARAM_MIP_Cuts_Gomory-Disjunctive-MIRCut:Disjunctive 3
CPXPARAM_MIP_Cuts_Gomory-Disjunctive-MIRCut:MIRCut 7
15
Node Left Objective IInf Best_Integer Best_Bound ItCnt Gap
0+ 0 nan nan 110.3567 0.0000 nan 100.00%
0+ 0 nan nan 93.2185 0.0000 nan 100.00%
0 0 0.2742 21 93.2185 0.2742 115 99.71%
0+ 0 nan nan 39.7563 0.2742 nan 99.31%
0 0 4.6659 16 39.7563 Cuts:30 161 88.26%
0+ 0 nan nan 24.0089 4.6659 nan 80.57%
0+ 0 nan nan 12.5602 4.6659 nan 62.85%
0 2 5.6040 13 12.5602 5.6042 161 55.38%
CPXPARAM_MIP_Cuts_Gomory-Disjunctive-MIRCut:Gomory 0
CPXPARAM_MIP_Cuts_Gomory-Disjunctive-MIRCut:Disjunctive 2
CPXPARAM_MIP_Cuts_Gomory-Disjunctive-MIRCut:MIRCut 8
16
Node Left Objective IInf Best_Integer Best_Bound ItCnt Gap
0+ 0 nan nan 109.2984 0.0000 nan 100.00%
0+ 0 nan nan 99.1849 0.0000 nan 100.00%
0 0 39.0015 15 99.1849 39.0015 136 60.68%
0+ 0 nan nan 96.2736 39.0015 nan 59.49%
0 0 47.5834 15 96.2736 Cuts:19 174 50.57%
0+ 0 nan nan 68.6047 47.5834 nan 30.64%
0 0 47.9617 14 68.6047 Cuts:7 183 30.09%
0 0 49.3296 15 68.6047 Cuts:21 211 28.10%
0 0 50.6106 17 68.6047 Cuts:53 236 26.23%
0 0 51.5937 14 68.6047 Cuts:15 275 24.80%
0 0 51.6491 16 68.6047 Cuts:8 286 24.71%
0 0 51.6653 15 68.6047 Cuts:7 291 24.69%
0 0 51.6717 15 68.6047 MIRcuts:1 294 24.68%
0+ 0 nan nan 66.5422 51.6717 nan 22.35%
0+ 0 nan nan 65.0487 51.6717 nan 20.56%
0 2 51.6717 15 65.0487 51.8611 294 20.27%
CPXPARAM_MIP_Cuts_Gomory-Disjunctive-MIRCut:Gomory 2
CPXPARAM_MIP_Cuts_Gomory-Disjunctive-MIRCut:Disjunctive 2
CPXPARAM_MIP_Cuts_Gomory-Disjunctive-MIRCut:MIRCut 6
17
Node Left Objective IInf Best_Integer Best_Bound ItCnt Gap
0+ 0 nan nan 109.2984 0.0000 nan 100.00%
0+ 0 nan nan 97.6971 0.0000 nan 100.00%
0+ 0 nan nan 85.4994 0.0000 nan 100.00%
0 0 0.4869 27 85.4994 0.4869 123 99.43%
0+ 0 nan nan 71.6706 0.4869 nan 99.32%
0 0 4.6602 23 71.6706 Cuts:35 163 93.50%
0+ 0 nan nan 39.0294 4.6602 nan 88.06%
0 0 4.9680 21 39.0294 Cuts:8 174 87.27%
0 0 5.5398 24 39.0294 Cuts:13 191 85.81%
0+ 0 nan nan 28.9385 5.5398 nan 80.86%
0 0 6.2447 25 28.9385 Cuts:23 219 78.42%
0 0 7.0026 23 28.9385 Cuts:16 249 75.80%
0+ 0 nan nan 22.9592 7.0026 nan 69.50%
0 0 7.0178 24 22.9592 Cuts:2 253 69.43%
0 2 7.0178 24 22.9592 7.0506 253 69.29%
CPXPARAM_MIP_Cuts_Gomory-Disjunctive-MIRCut:Gomory 1
CPXPARAM_MIP_Cuts_Gomory-Disjunctive-MIRCut:Disjunctive 3
CPXPARAM_MIP_Cuts_Gomory-Disjunctive-MIRCut:MIRCut 11
18
Node Left Objective IInf Best_Integer Best_Bound ItCnt Gap
0+ 0 nan nan 109.2984 0.0000 nan 100.00%
0+ 0 nan nan 89.3009 0.0000 nan 100.00%
0 0 37.6534 9 89.3009 37.6534 120 57.84%
0+ 0 nan nan 78.0911 37.6534 nan 51.78%
0 0 43.3917 9 78.0911 Cuts:11 152 44.43%
0+ 0 nan nan 74.5007 43.3917 nan 41.76%
0 0 44.2520 10 74.5007 Cuts:9 167 40.60%
0+ 0 nan nan 68.4745 44.2520 nan 35.37%
0 0 48.1483 10 68.4745 Cuts:5 193 29.68%
0 0 48.2659 8 68.4745 Cuts:6 209 29.51%
0 0 48.3846 9 68.4745 Cuts:11 225 29.34%
0 0 48.3846 11 68.4745 MIRcuts:6 232 29.34%
0 0 48.3997 13 68.4745 MIRcuts:6 244 29.32%
0 0 48.4065 13 68.4745 MIRcuts:7 250 29.31%
0 0 48.4390 16 68.4745 MIRcuts:8 262 29.26%
0 0 48.4480 16 68.4745 MIRcuts:5 268 29.25%
0 0 48.4482 16 68.4745 MIRcuts:2 270 29.25%
0+ 0 nan nan 67.8717 48.4482 nan 28.62%
0+ 0 nan nan 62.3097 48.4482 nan 22.25%
0 2 48.4482 16 62.3097 48.4504 270 22.24%
CPXPARAM_MIP_Cuts_Gomory-Disjunctive-MIRCut:Gomory 7
CPXPARAM_MIP_Cuts_Gomory-Disjunctive-MIRCut:Disjunctive 3
CPXPARAM_MIP_Cuts_Gomory-Disjunctive-MIRCut:MIRCut 4
19
Node Left Objective IInf Best_Integer Best_Bound ItCnt Gap
0+ 0 nan nan 109.2984 0.0000 nan 100.00%
0+ 0 nan nan 92.9814 0.0000 nan 100.00%
0 0 0.4309 20 92.9814 0.4309 108 99.54%
0+ 0 nan nan 60.8556 0.4309 nan 99.29%
0 0 3.9497 16 60.8556 Cuts:28 137 93.51%
0+ 0 nan nan 28.4791 3.9497 nan 86.13%
0 0 4.7004 15 28.4791 Cuts:11 170 83.50%
0+ 0 nan nan 23.5731 4.7004 nan 80.06%
0 0 5.2633 12 23.5731 Cuts:3 175 77.67%
0 0 5.9772 17 23.5731 Cuts:3 195 74.64%
0+ 0 nan nan 23.3438 5.9772 nan 74.40%
0 0 5.9985 16 23.3438 MIRcuts:1 206 74.30%
0 0 6.0067 14 23.3438 MIRcuts:2 207 74.27%
0+ 0 nan nan 19.1807 6.0067 nan 68.68%
0+ 0 nan nan 18.5940 6.0067 nan 67.70%
0 2 6.0067 14 18.5940 6.2343 207 66.47%
CPXPARAM_MIP_Cuts_Gomory-Disjunctive-MIRCut:Gomory 1
CPXPARAM_MIP_Cuts_Gomory-Disjunctive-MIRCut:Disjunctive 3
CPXPARAM_MIP_Cuts_Gomory-Disjunctive-MIRCut:MIRCut 9
20
Node Left Objective IInf Best_Integer Best_Bound ItCnt Gap
0+ 0 nan nan 93.3792 0.0000 nan 100.00%
0+ 0 nan nan 84.6822 0.0000 nan 100.00%
0 0 9.0972 13 84.6822 9.0972 140 89.26%
0+ 0 nan nan 42.0305 9.0972 nan 78.36%
0 0 15.9643 12 42.0305 Cuts:16 175 62.02%
0 0 15.9678 14 42.0305 Cuts:17 186 62.01%
0 0 16.4602 13 42.0305 Cuts:12 215 60.84%
0 0 18.8887 14 42.0305 Cuts:15 252 55.06%
0+ 0 nan nan 41.9148 18.8887 nan 54.94%
0 0 21.1348 14 41.9148 Cuts:26 294 49.58%
0 0 21.1671 14 41.9148 MIRcuts:5 300 49.50%
0 0 21.1785 14 41.9148 MIRcuts:1 309 49.47%
0 0 21.2217 14 41.9148 MIRcuts:6 314 49.37%
0+ 0 nan nan 35.3978 21.2217 nan 40.05%
0 0 21.2349 14 35.3978 MIRcuts:4 318 40.01%
0 0 21.2392 14 35.3978 MIRcuts:2 320 40.00%
0 2 21.2392 14 35.3978 21.2398 320 40.00%
CPXPARAM_MIP_Cuts_Gomory-Disjunctive-MIRCut:Gomory 8
CPXPARAM_MIP_Cuts_Gomory-Disjunctive-MIRCut:Disjunctive 5
CPXPARAM_MIP_Cuts_Gomory-Disjunctive-MIRCut:MIRCut 3
21
Node Left Objective IInf Best_Integer Best_Bound ItCnt Gap
0+ 0 nan nan 93.3792 0.0000 nan 100.00%
0+ 0 nan nan 84.6822 0.0000 nan 100.00%
0+ 0 nan nan 73.2863 0.0000 nan 100.00%
0 0 0.3515 25 73.2863 0.3515 121 99.52%
0+ 0 nan nan 24.0307 0.3515 nan 98.54%
0 0 1.9314 24 24.0307 Cuts:24 162 91.96%
0 0 2.4061 24 24.0307 Cuts:13 186 89.99%
0+ 0 nan nan 14.6626 2.4061 nan 83.59%
0 0 2.6666 25 14.6626 Cuts:7 203 81.81%
0 0 2.6840 24 14.6626 Cuts:4 213 81.69%
0+ 0 nan nan 10.8872 2.6840 nan 75.35%
0 0 2.6891 24 10.8872 MIRcuts:1 215 75.30%
0+ 0 nan nan 10.4740 2.6891 nan 74.33%
0 2 3.0557 18 10.4740 3.0576 215 70.81%
CPXPARAM_MIP_Cuts_Gomory-Disjunctive-MIRCut:Gomory 3
CPXPARAM_MIP_Cuts_Gomory-Disjunctive-MIRCut:Disjunctive 1
CPXPARAM_MIP_Cuts_Gomory-Disjunctive-MIRCut:MIRCut 13
22
Node Left Objective IInf Best_Integer Best_Bound ItCnt Gap
0+ 0 nan nan 93.3792 0.0000 nan 100.00%
0+ 0 nan nan 79.5308 0.0000 nan 100.00%
0 0 9.0491 6 79.5308 9.0491 129 88.62%
0+ 0 nan nan 30.9085 9.0491 nan 70.72%
0 0 15.4119 8 30.9085 Cuts:5 156 50.14%
0 0 18.0437 5 30.9085 Cuts:6 187 41.62%
0+ 0 nan nan 28.6581 18.0437 nan 37.04%
0 0 18.0475 12 28.6581 MIRcuts:2 195 37.02%
0 0 18.0614 12 28.6581 Cuts:8 200 36.98%
0 0 18.3948 12 28.6581 MIRcuts:5 213 35.81%
0 0 18.5841 12 28.6581 MIRcuts:1 219 35.15%
0 0 18.5849 12 28.6581 MIRcuts:1 221 35.15%
0 2 18.6241 12 28.6581 18.7630 221 34.53%
CPXPARAM_MIP_Cuts_Gomory-Disjunctive-MIRCut:Gomory 5
CPXPARAM_MIP_Cuts_Gomory-Disjunctive-MIRCut:Disjunctive 2
CPXPARAM_MIP_Cuts_Gomory-Disjunctive-MIRCut:MIRCut 5
23
Node Left Objective IInf Best_Integer Best_Bound ItCnt Gap
0+ 0 nan nan 93.3792 0.0000 nan 100.00%
0+ 0 nan nan 78.2544 0.0000 nan 100.00%
0 0 0.1756 21 78.2544 0.1756 110 99.78%
0+ 0 nan nan 32.8177 0.1756 nan 99.46%
0 0 2.6695 14 32.8177 Cuts:24 146 91.87%
0+ 0 nan nan 4.7890 2.6695 nan 44.26%
0 0 2.7267 13 4.7890 Disjcuts:1 149 43.06%
0 2 2.9624 9 4.7890 2.9624 152 38.14%
CPXPARAM_MIP_Cuts_Gomory-Disjunctive-MIRCut:Gomory 0
CPXPARAM_MIP_Cuts_Gomory-Disjunctive-MIRCut:Disjunctive 4
CPXPARAM_MIP_Cuts_Gomory-Disjunctive-MIRCut:MIRCut 5
24
Node Left Objective IInf Best_Integer Best_Bound ItCnt Gap
0+ 0 nan nan 94.5045 0.0000 nan 100.00%
0+ 0 nan nan 83.7373 0.0000 nan 100.00%
0 0 13.3998 12 83.7373 13.3998 136 84.00%
0+ 0 nan nan 63.4898 13.3998 nan 78.89%
0 0 22.6915 12 63.4898 Cuts:13 165 64.26%
0+ 0 nan nan 62.4975 22.6915 nan 63.69%
0 0 26.1054 13 62.4975 Cuts:16 213 58.23%
0+ 0 nan nan 47.0875 26.1054 nan 44.56%
0 0 26.3146 14 47.0875 Cuts:13 241 44.12%
0 0 28.1783 13 47.0875 Cuts:18 285 40.16%
0 0 28.2350 13 47.0875 Cuts:5 295 40.04%
0 0 28.2416 14 47.0875 Cuts:4 305 40.02%
0 0 28.2416 14 47.0875 MIRcuts:2 307 40.02%
0 0 28.2416 13 47.0875 MIRcuts:2 309 40.02%
0 2 28.2416 13 47.0875 28.2716 309 39.96%
CPXPARAM_MIP_Cuts_Gomory-Disjunctive-MIRCut:Gomory 1
CPXPARAM_MIP_Cuts_Gomory-Disjunctive-MIRCut:Disjunctive 6
CPXPARAM_MIP_Cuts_Gomory-Disjunctive-MIRCut:MIRCut 2
25
Node Left Objective IInf Best_Integer Best_Bound ItCnt Gap
0+ 0 nan nan 94.5045 0.0000 nan 100.00%
0+ 0 nan nan 83.9802 0.0000 nan 100.00%
0 0 0.3418 26 83.9802 0.3418 117 99.59%
0+ 0 nan nan 41.4760 0.3418 nan 99.18%
0 0 2.1888 22 41.4760 Cuts:32 170 94.72%
0+ 0 nan nan 9.6833 2.1888 nan 77.40%
0 0 2.7271 22 9.6833 Cuts:8 200 71.84%
0 0 2.7834 24 9.6833 Cuts:8 214 71.26%
0 0 2.8937 23 9.6833 Disjcuts:3 225 70.12%
0+ 0 nan nan 7.6980 2.8937 nan 62.41%
0 0 2.9140 22 7.6980 Disjcuts:1 227 62.15%
0 2 3.3864 14 7.6980 3.4513 227 55.17%
CPXPARAM_MIP_Cuts_Gomory-Disjunctive-MIRCut:Gomory 0
CPXPARAM_MIP_Cuts_Gomory-Disjunctive-MIRCut:Disjunctive 2
CPXPARAM_MIP_Cuts_Gomory-Disjunctive-MIRCut:MIRCut 13
26
Node Left Objective IInf Best_Integer Best_Bound ItCnt Gap
0+ 0 nan nan 94.5045 0.0000 nan 100.00%
0+ 0 nan nan 80.2086 0.0000 nan 100.00%
0 0 12.4465 6 80.2086 12.4465 132 84.48%
0+ 0 nan nan 40.0498 12.4465 nan 68.92%
0 0 21.5686 7 40.0498 Cuts:11 165 46.15%
0 0 25.2057 11 40.0498 Cuts:10 202 37.06%
0 0 26.8386 10 40.0498 Cuts:12 232 32.99%
0 0 27.4205 10 40.0498 Cuts:10 248 31.53%
0 0 28.1095 10 40.0498 Cuts:9 264 29.81%
0 0 28.4450 10 40.0498 Cuts:12 276 28.98%
0 0 28.8052 9 40.0498 MIRcuts:6 291 28.08%
0 0 28.9575 9 40.0498 Cuts:3 316 27.70%
0 0 29.0169 10 40.0498 MIRcuts:5 327 27.55%
0 0 29.0169 11 40.0498 MIRcuts:3 329 27.55%
0 0 29.0354 11 40.0498 MIRcuts:6 333 27.50%
0 0 29.0918 11 40.0498 MIRcuts:3 339 27.36%
0 0 29.1153 11 40.0498 MIRcuts:2 343 27.30%
0+ 0 nan nan 39.5090 29.1153 nan 26.31%
0 2 29.1153 11 39.5090 29.2080 343 26.07%
CPXPARAM_MIP_Cuts_Gomory-Disjunctive-MIRCut:Gomory 8
CPXPARAM_MIP_Cuts_Gomory-Disjunctive-MIRCut:Disjunctive 4
CPXPARAM_MIP_Cuts_Gomory-Disjunctive-MIRCut:MIRCut 4
27
Node Left Objective IInf Best_Integer Best_Bound ItCnt Gap
0+ 0 nan nan 94.5045 0.0000 nan 100.00%
0+ 0 nan nan 84.6207 0.0000 nan 100.00%
0 0 0.1609 19 84.6207 0.1609 117 99.81%
0+ 0 nan nan 40.7896 0.1609 nan 99.61%
0 0 2.1583 16 40.7896 Cuts:20 148 94.71%
0+ 0 nan nan 6.1941 2.1583 nan 65.15%
0 0 2.2367 16 6.1941 Cuts:3 159 63.89%
0 0 2.2946 15 6.1941 Disjcuts:2 169 62.96%
0+ 0 nan nan 6.0722 2.2946 nan 62.21%
0 0 2.3374 14 6.0722 Disjcuts:2 177 61.51%
0+ 0 nan nan 5.0046 2.3374 nan 53.30%
0 2 2.8908 9 5.0046 3.1744 177 36.57%
CPXPARAM_MIP_Cuts_Gomory-Disjunctive-MIRCut:Gomory 0
CPXPARAM_MIP_Cuts_Gomory-Disjunctive-MIRCut:Disjunctive 2
CPXPARAM_MIP_Cuts_Gomory-Disjunctive-MIRCut:MIRCut 7
28
Node Left Objective IInf Best_Integer Best_Bound ItCnt Gap
0+ 0 nan nan 133.7092 0.0000 nan 100.00%
0+ 0 nan nan 130.8863 0.0000 nan 100.00%
0+ 0 nan nan 108.6480 0.0000 nan 100.00%
0 0 32.9611 14 108.6480 32.9611 141 69.66%
0 0 46.6270 16 108.6480 Cuts:19 180 57.08%
0+ 0 nan nan 104.4446 46.6270 nan 55.36%
0 0 51.4265 17 104.4446 Cuts:21 214 50.76%
0+ 0 nan nan 94.9544 51.4265 nan 45.84%
0 0 53.0145 16 94.9544 Cuts:13 235 44.17%
0 0 53.7328 17 94.9544 MIRcuts:8 243 43.41%
0 0 54.1541 17 94.9544 Cuts:5 262 42.97%
0+ 0 nan nan 94.0077 54.1541 nan 42.39%
0 0 55.2618 17 94.0077 Cuts:9 289 41.22%
0 0 55.4515 16 94.0077 MIRcuts:8 301 41.01%
0 0 55.5234 17 94.0077 MIRcuts:3 307 40.94%
0 0 55.5713 17 94.0077 MIRcuts:13 316 40.89%
0+ 0 nan nan 93.5493 55.5713 nan 40.60%
0 0 55.6575 17 93.5493 MIRcuts:2 320 40.50%
0 0 55.7555 17 93.5493 Cuts:7 333 40.40%
0+ 0 nan nan 91.7617 55.7555 nan 39.24%
0 0 55.7769 17 91.7617 MIRcuts:3 339 39.22%
0 0 55.7927 17 91.7617 MIRcuts:3 347 39.20%
0 0 55.8138 17 91.7617 MIRcuts:3 351 39.18%
0 0 55.8217 17 91.7617 MIRcuts:1 353 39.17%
0+ 0 nan nan 82.2532 55.8217 nan 32.13%
0+ 0 nan nan 81.8629 55.8217 nan 31.81%
0 2 55.8217 17 81.8629 55.8366 353 31.79%
CPXPARAM_MIP_Cuts_Gomory-Disjunctive-MIRCut:Gomory 12
CPXPARAM_MIP_Cuts_Gomory-Disjunctive-MIRCut:Disjunctive 2
CPXPARAM_MIP_Cuts_Gomory-Disjunctive-MIRCut:MIRCut 3
29
Node Left Objective IInf Best_Integer Best_Bound ItCnt Gap
0+ 0 nan nan 133.7092 0.0000 nan 100.00%
0+ 0 nan nan 129.6212 0.0000 nan 100.00%
0 0 0.0000 27 129.6212 0.0000 100 100.00%
0+ 0 nan nan 76.0776 0.0000 nan 100.00%
0 0 5.0354 22 76.0776 Cuts:33 212 93.38%
0+ 0 nan nan 17.8560 5.0354 nan 71.80%
0 0 6.0662 20 17.8560 Cuts:11 232 66.03%
0+ 0 nan nan 16.1240 6.0662 nan 62.38%
0 0 6.2981 20 16.1240 Cuts:3 244 60.94%
0 0 6.3054 21 16.1240 MIRcuts:1 246 60.89%
0 0 6.3056 21 16.1240 MIRcuts:1 247 60.89%
0 0 6.3068 21 16.1240 MIRcuts:1 249 60.89%
0 2 6.3068 21 16.1240 6.4210 249 60.18%
CPXPARAM_MIP_Cuts_Gomory-Disjunctive-MIRCut:Gomory 3
CPXPARAM_MIP_Cuts_Gomory-Disjunctive-MIRCut:Disjunctive 2
CPXPARAM_MIP_Cuts_Gomory-Disjunctive-MIRCut:MIRCut 12
30
Node Left Objective IInf Best_Integer Best_Bound ItCnt Gap
0+ 0 nan nan 133.7092 0.0000 nan 100.00%
0+ 0 nan nan 115.4430 0.0000 nan 100.00%
0 0 35.6764 9 115.4430 35.6764 127 69.10%
0+ 0 nan nan 93.6289 35.6764 nan 61.90%
0 0 44.2811 9 93.6289 Cuts:14 157 52.71%
0 0 46.8503 11 93.6289 Cuts:6 182 49.96%
0 0 48.3372 13 93.6289 Cuts:19 203 48.37%
0 0 48.8411 12 93.6289 Cuts:15 219 47.84%
0+ 0 nan nan 85.4155 48.8411 nan 42.82%
0 0 51.8033 12 85.4155 Cuts:22 262 39.35%
0 0 52.2425 11 85.4155 MIRcuts:6 274 38.84%
0 0 53.4574 13 85.4155 Cuts:13 303 37.41%
0 0 54.3402 15 85.4155 MIRcuts:21 326 36.38%
0 0 54.9228 16 85.4155 MIRcuts:12 351 35.70%
0 0 55.1106 15 85.4155 MIRcuts:8 365 35.48%
0 0 55.2257 13 85.4155 MIRcuts:4 384 35.34%
0 0 55.4553 15 85.4155 MIRcuts:14 401 35.08%
0 0 55.5444 15 85.4155 MIRcuts:8 413 34.97%
0+ 0 nan nan 84.1076 55.5444 nan 33.96%
0 0 55.6250 13 84.1076 MIRcuts:16 423 33.86%
0 0 55.7038 15 84.1076 MIRcuts:15 441 33.77%
0 0 55.8398 13 84.1076 MIRcuts:9 452 33.61%
0 0 56.0822 14 84.1076 MIRcuts:10 469 33.32%
0 0 56.2875 16 84.1076 MIRcuts:14 478 33.08%
0 0 56.5112 14 84.1076 MIRcuts:13 493 32.81%
0 0 56.5792 14 84.1076 MIRcuts:5 501 32.73%
0 0 56.5968 14 84.1076 MIRcuts:5 504 32.71%
0 0 56.6908 14 84.1076 MIRcuts:5 508 32.60%
0 0 56.6969 13 84.1076 MIRcuts:2 513 32.59%
0 0 56.7170 14 84.1076 MIRcuts:8 520 32.57%
0 0 56.7636 15 84.1076 MIRcuts:7 530 32.51%
0 0 56.7709 13 84.1076 MIRcuts:3 534 32.50%
0+ 0 nan nan 73.4397 56.7709 nan 22.70%
0 2 56.7709 13 73.4397 57.0789 534 22.28%
CPXPARAM_MIP_Cuts_Gomory-Disjunctive-MIRCut:Gomory 24
CPXPARAM_MIP_Cuts_Gomory-Disjunctive-MIRCut:Disjunctive 2
CPXPARAM_MIP_Cuts_Gomory-Disjunctive-MIRCut:MIRCut 3
31
Node Left Objective IInf Best_Integer Best_Bound ItCnt Gap
0+ 0 nan nan 133.7092 0.0000 nan 100.00%
0+ 0 nan nan 114.7297 0.0000 nan 100.00%
0 0 0.2882 21 114.7297 0.2882 112 99.75%
0+ 0 nan nan 42.2849 0.2882 nan 99.32%
0 0 3.5465 17 42.2849 Cuts:20 140 91.61%
0+ 0 nan nan 16.4510 3.5465 nan 78.44%
0 0 4.8419 13 16.4510 Cuts:9 153 70.57%
0+ 0 nan nan 16.1689 4.8419 nan 70.05%
0 0 5.0636 17 16.1689 Cuts:5 164 68.68%
0 0 5.1473 16 16.1689 Cuts:4 177 68.17%
0 0 5.6819 15 16.1689 Cuts:13 207 64.86%
0+ 0 nan nan 11.8255 5.6819 nan 51.95%
0+ 0 nan nan 10.6644 5.6819 nan 46.72%
0+ 0 nan nan 10.6644 5.6819 nan 46.72%
0 0 8.0158 2 10.6644 8.0158 250 24.84%
0+ 0 nan nan 10.2000 8.0158 nan 21.41%
0 0 8.0158 2 10.2000 Cuts:4 254 21.41%
0 0 8.0158 3 10.2000 Fract:1 257 21.41%
0+ 0 nan nan 9.9071 8.0158 nan 19.09%
0+ 0 nan nan 9.5348 8.0158 nan 15.93%
0 2 8.0158 2 9.5348 8.0158 257 15.93%
CPXPARAM_MIP_Cuts_Gomory-Disjunctive-MIRCut:Gomory 0
CPXPARAM_MIP_Cuts_Gomory-Disjunctive-MIRCut:Disjunctive 2
CPXPARAM_MIP_Cuts_Gomory-Disjunctive-MIRCut:MIRCut 2
32
Node Left Objective IInf Best_Integer Best_Bound ItCnt Gap
0+ 0 nan nan 110.7059 0.0000 nan 100.00%
0+ 0 nan nan 93.8685 0.0000 nan 100.00%
0+ 0 nan nan 88.1652 0.0000 nan 100.00%
0 0 26.6543 14 88.1652 26.6543 129 69.77%
0+ 0 nan nan 72.9257 26.6543 nan 63.45%
0 0 31.4642 15 72.9257 Cuts:16 158 56.85%
0+ 0 nan nan 69.5946 31.4642 nan 54.79%
0 0 33.5220 14 69.5946 Cuts:19 195 51.83%
0+ 0 nan nan 69.3237 33.5220 nan 51.64%
0 0 34.6528 15 69.3237 Cuts:7 243 50.01%
0+ 0 nan nan 61.5691 34.6528 nan 43.72%
0 0 35.1868 17 61.5691 Cuts:11 255 42.85%
0 0 35.2157 17 61.5691 Cuts:4 262 42.80%
0+ 0 nan nan 51.0685 35.2157 nan 31.04%
0 2 35.2157 17 51.0685 35.2557 262 30.96%
CPXPARAM_MIP_Cuts_Gomory-Disjunctive-MIRCut:Gomory 0
CPXPARAM_MIP_Cuts_Gomory-Disjunctive-MIRCut:Disjunctive 6
CPXPARAM_MIP_Cuts_Gomory-Disjunctive-MIRCut:MIRCut 6
33
Node Left Objective IInf Best_Integer Best_Bound ItCnt Gap
0+ 0 nan nan 110.7059 0.0000 nan 100.00%
0+ 0 nan nan 93.8685 0.0000 nan 100.00%
0+ 0 nan nan 66.0679 0.0000 nan 100.00%
0 0 0.7986 24 66.0679 0.7986 121 98.79%
0 0 4.9388 22 66.0679 Cuts:32 152 92.52%
0+ 0 nan nan 36.5673 4.9388 nan 86.49%
0 0 5.6235 24 36.5673 Cuts:8 161 84.62%
0+ 0 nan nan 18.2559 5.6235 nan 69.20%
0 0 6.2080 20 18.2559 Cuts:6 181 65.99%
0 0 6.5099 22 18.2559 Cuts:7 190 64.34%
0 0 7.6568 24 18.2559 Cuts:11 219 58.06%
0+ 0 nan nan 13.4712 7.6568 nan 43.16%
0+ 0 nan nan 11.6909 7.6568 nan 34.51%
0 2 9.1498 15 11.6909 9.2938 219 20.50%
CPXPARAM_MIP_Cuts_Gomory-Disjunctive-MIRCut:Gomory 0
CPXPARAM_MIP_Cuts_Gomory-Disjunctive-MIRCut:Disjunctive 0
CPXPARAM_MIP_Cuts_Gomory-Disjunctive-MIRCut:MIRCut 14
34
Node Left Objective IInf Best_Integer Best_Bound ItCnt Gap
0+ 0 nan nan 110.7059 0.0000 nan 100.00%
0+ 0 nan nan 76.3517 0.0000 nan 100.00%
0 0 25.6680 9 76.3517 25.6680 130 66.38%
0+ 0 nan nan 53.1922 25.6680 nan 51.74%
0 0 32.8002 9 53.1922 Cuts:11 156 38.34%
0 0 32.8002 8 53.1922 MIRcuts:3 161 38.34%
0 0 32.8002 9 53.1922 MIRcuts:3 163 38.34%
0+ 0 nan nan 45.1492 32.8002 nan 27.35%
0 2 32.8002 9 45.1492 34.2628 163 24.11%
CPXPARAM_MIP_Cuts_Gomory-Disjunctive-MIRCut:Gomory 1
CPXPARAM_MIP_Cuts_Gomory-Disjunctive-MIRCut:Disjunctive 2
CPXPARAM_MIP_Cuts_Gomory-Disjunctive-MIRCut:MIRCut 2
35
Node Left Objective IInf Best_Integer Best_Bound ItCnt Gap
0+ 0 nan nan 110.7059 0.0000 nan 100.00%
0+ 0 nan nan 91.5929 0.0000 nan 100.00%
0 0 0.5699 21 91.5929 0.5699 111 99.38%
0+ 0 nan nan 46.2042 0.5699 nan 98.77%
0 0 5.6403 16 46.2042 Cuts:21 148 87.79%
0+ 0 nan nan 15.5776 5.6403 nan 63.79%
0 0 6.2289 21 15.5776 Cuts:7 178 60.01%
0 0 6.4014 23 15.5776 MIRcuts:4 192 58.91%
0 0 6.5416 20 15.5776 Cuts:4 202 58.01%
0 0 7.8990 20 15.5776 Cuts:9 229 49.29%
0 0 7.9910 20 15.5776 Cuts:8 255 48.70%
0 0 8.0352 19 15.5776 Cuts:6 262 48.42%
0 0 8.0381 18 15.5776 MIRcuts:1 272 48.40%
0 0 8.0397 18 15.5776 MIRcuts:1 274 48.39%
0+ 0 nan nan 11.4152 8.0397 nan 29.57%
0 2 9.3840 9 11.4152 9.5650 274 16.21%
CPXPARAM_MIP_Cuts_Gomory-Disjunctive-MIRCut:Gomory 4
CPXPARAM_MIP_Cuts_Gomory-Disjunctive-MIRCut:Disjunctive 7
CPXPARAM_MIP_Cuts_Gomory-Disjunctive-MIRCut:MIRCut 6
36
Node Left Objective IInf Best_Integer Best_Bound ItCnt Gap
0+ 0 nan nan 123.7135 0.0000 nan 100.00%
0+ 0 nan nan 108.6148 0.0000 nan 100.00%
0+ 0 nan nan 101.4822 0.0000 nan 100.00%
0 0 14.9500 14 101.4822 14.9500 143 85.27%
0+ 0 nan nan 85.1671 14.9500 nan 82.45%
0 0 24.6276 15 85.1671 Cuts:17 180 71.08%
0+ 0 nan nan 72.2426 24.6276 nan 65.91%
0 0 24.8816 14 72.2426 Cuts:11 192 65.56%
0 0 28.3613 14 72.2426 Cuts:30 224 60.74%
0 0 28.4212 15 72.2426 MIRcuts:4 231 60.66%
0 0 28.6347 15 72.2426 Cuts:5 241 60.36%
0 0 28.6518 15 72.2426 MIRcuts:3 247 60.34%
0 0 28.7401 15 72.2426 MIRcuts:2 253 60.22%
0 0 28.7466 15 72.2426 MIRcuts:2 256 60.21%
0 0 28.7480 15 72.2426 MIRcuts:1 259 60.21%
0 0 28.8137 14 72.2426 MIRcuts:6 270 60.12%
0 0 28.8857 15 72.2426 MIRcuts:5 274 60.02%
0+ 0 nan nan 66.4403 28.8857 nan 56.52%
0 0 28.8911 15 66.4403 MIRcuts:4 277 56.52%
0 0 28.8913 15 66.4403 MIRcuts:1 278 56.52%
0+ 0 nan nan 66.3570 28.8913 nan 56.46%
0 2 28.8913 15 66.3570 28.9329 278 56.40%
CPXPARAM_MIP_Cuts_Gomory-Disjunctive-MIRCut:Gomory 11
CPXPARAM_MIP_Cuts_Gomory-Disjunctive-MIRCut:Disjunctive 2
CPXPARAM_MIP_Cuts_Gomory-Disjunctive-MIRCut:MIRCut 3
37
Node Left Objective IInf Best_Integer Best_Bound ItCnt Gap
0+ 0 nan nan 123.7135 0.0000 nan 100.00%
0+ 0 nan nan 108.8244 0.0000 nan 100.00%
0+ 0 nan nan 97.8424 0.0000 nan 100.00%
0 0 0.0000 28 97.8424 0.0000 113 100.00%
0+ 0 nan nan 83.8211 0.0000 nan 100.00%
0 0 3.4414 22 83.8211 Cuts:44 203 95.89%
0+ 0 nan nan 15.4571 3.4414 nan 77.74%
0 0 3.4919 23 15.4571 Disjcuts:4 214 77.41%
0+ 0 nan nan 14.7888 3.4919 nan 76.39%
0 0 3.8215 22 14.7888 Cuts:14 253 74.16%
0+ 0 nan nan 10.8866 3.8215 nan 64.90%
0 0 4.4169 22 10.8866 Cuts:24 293 59.43%
0 0 4.7910 22 10.8866 Cuts:22 318 55.99%
0+ 0 nan nan 10.0449 4.7910 nan 52.30%
0 2 5.0947 13 10.0449 5.1188 318 49.04%
CPXPARAM_MIP_Cuts_Gomory-Disjunctive-MIRCut:Gomory 1
CPXPARAM_MIP_Cuts_Gomory-Disjunctive-MIRCut:Disjunctive 4
CPXPARAM_MIP_Cuts_Gomory-Disjunctive-MIRCut:MIRCut 12
38
Node Left Objective IInf Best_Integer Best_Bound ItCnt Gap
0+ 0 nan nan 123.7135 0.0000 nan 100.00%
0+ 0 nan nan 93.6483 0.0000 nan 100.00%
0 0 20.1701 7 93.6483 20.1701 129 78.46%
0+ 0 nan nan 48.5233 20.1701 nan 58.43%
0 0 31.8209 7 48.5233 Cuts:13 157 34.42%
0 0 35.3396 9 48.5233 Cuts:14 200 27.17%
0 0 36.4695 13 48.5233 Cuts:12 225 24.84%
0 0 36.7552 12 48.5233 Cuts:14 238 24.25%
0 0 37.3254 11 48.5233 Cuts:13 259 23.08%
0 0 37.7620 10 48.5233 Cuts:12 277 22.18%
0 0 38.0395 13 48.5233 MIRcuts:10 293 21.61%
0 0 38.2174 11 48.5233 Cuts:17 310 21.24%
0 0 38.7511 12 48.5233 Cuts:13 337 20.14%
0 0 38.8350 13 48.5233 MIRcuts:6 346 19.97%
0 0 38.8604 13 48.5233 MIRcuts:5 352 19.91%
0 0 38.8653 13 48.5233 MIRcuts:3 356 19.90%
0 0 38.8684 13 48.5233 MIRcuts:3 359 19.90%
0 0 38.8722 13 48.5233 MIRcuts:3 362 19.89%
0 2 38.8722 13 48.5233 38.8816 362 19.87%
CPXPARAM_MIP_Cuts_Gomory-Disjunctive-MIRCut:Gomory 14
CPXPARAM_MIP_Cuts_Gomory-Disjunctive-MIRCut:Disjunctive 7
CPXPARAM_MIP_Cuts_Gomory-Disjunctive-MIRCut:MIRCut 5
39
Node Left Objective IInf Best_Integer Best_Bound ItCnt Gap
0+ 0 nan nan 123.7135 0.0000 nan 100.00%
0+ 0 nan nan 89.8836 0.0000 nan 100.00%
0 0 0.2044 22 89.8836 0.2044 126 99.77%
0+ 0 nan nan 45.3370 0.2044 nan 99.55%
0 0 2.8235 15 45.3370 Cuts:29 179 93.77%
0+ 0 nan nan 9.1696 2.8235 nan 69.21%
0+ 0 nan nan 8.0806 2.8235 nan 65.06%
0 2 3.8273 8 8.0806 4.1948 179 48.09%
CPXPARAM_MIP_Cuts_Gomory-Disjunctive-MIRCut:Gomory 0
CPXPARAM_MIP_Cuts_Gomory-Disjunctive-MIRCut:Disjunctive 2
CPXPARAM_MIP_Cuts_Gomory-Disjunctive-MIRCut:MIRCut 6
